language ESSENCE' 1.0
letting lastdx=103
letting cage be [
[29,4,1,4,2,5,2,5,1,0,0],
[35,1,14,1,13,2,13,2,14,0,0],
[6,12,16,0,0, 0,0, 0,0, 0,0],
[2,13,12,0,0, 0,0, 0,0, 0,0],
[16,12,1,0,0, 0,0, 0,0, 0,0],
[24,13,2,14,2,14,1,13,1,0,0],
[8,4,12,0,0, 0,0, 0,0, 0,0],
[13,11,15,0,0, 0,0, 0,0, 0,0],
[14,7,3,0,0, 0,0, 0,0, 0,0],
[22,2,7,2,6,0,0, 0,0, 0,0],
[8,6,9,0,0, 0,0, 0,0, 0,0],
[39,10,14,11,14,11,13,12,13,13,13],
[9,3,10,0,0, 0,0, 0,0, 0,0],
[3,3,13,0,0, 0,0, 0,0, 0,0],
[10,14,12,0,0, 0,0, 0,0, 0,0],
[12,3,9,0,0, 0,0, 0,0, 0,0],
[32,9,8,8,8,8,7,8,6,0,0],
[9,16,16,16,15,15,15,0,0, 0,0],
[34,6,15,7,15,7,16,6,16,0,0],
[42,5,5,6,5,6,6,6,7,0,0],
[40,1,11,1,10,2,10,2,9,1,9],
[21,16,14,15,14,0,0, 0,0, 0,0],
[3,4,6,0,0, 0,0, 0,0, 0,0],
[15,3,3,0,0, 0,0, 0,0, 0,0],
[8,8,9,7,9,0,0, 0,0, 0,0],
[10,8,5,0,0, 0,0, 0,0, 0,0],
[13,16,11,15,11,0,0, 0,0, 0,0],
[11,5,4,0,0, 0,0, 0,0, 0,0],
[15,5,7,5,6,0,0, 0,0, 0,0],
[27,7,2,8,2,8,3,0,0, 0,0],
[43,7,14,8,14,8,13,7,13,7,12],
[23,15,9,14,9,13,9,0,0, 0,0],
[10,12,4,0,0, 0,0, 0,0, 0,0],
[5,11,2,0,0, 0,0, 0,0, 0,0],
[2,15,8,0,0, 0,0, 0,0, 0,0],
[42,10,11,9,11,9,10,9,9,0,0],
[35,9,4,9,3,10,3,11,3,11,4],
[13,10,4,0,0, 0,0, 0,0, 0,0],
[28,9,13,10,13,10,12,0,0, 0,0],
[57,5,11,5,12,5,13,5,14,5,15],
[12,11,5,0,0, 0,0, 0,0, 0,0],
[7,10,7,10,6,0,0, 0,0, 0,0],
[22,14,8,13,8,0,0, 0,0, 0,0],
[19,6,14,6,13,6,12,0,0, 0,0],
[3,10,1,11,1,0,0, 0,0, 0,0],
[15,4,14,4,13,0,0, 0,0, 0,0],
[47,3,11,2,11,2,12,1,12,3,12],
[24,1,7,1,8,0,0, 0,0, 0,0],
[5,12,9,0,0, 0,0, 0,0, 0,0],
[6,13,4,0,0, 0,0, 0,0, 0,0],
[40,6,10,6,11,7,11,8,11,0,0],
[50,8,1,9,1,9,2,10,2,0,0],
[36,7,6,7,7,7,8,0,0, 0,0],
[16,9,12,8,12,0,0, 0,0, 0,0],
[6,9,7,0,0, 0,0, 0,0, 0,0],
[24,9,6,9,5,10,5,0,0, 0,0],
[16,13,14,0,0, 0,0, 0,0, 0,0],
[30,16,2,16,3,15,3,15,4,0,0],
[37,12,15,12,14,13,15,0,0, 0,0],
[27,12,11,11,11,11,12,12,12,0,0],
[34,16,12,15,12,15,13,16,13,0,0],
[25,5,10,4,10,4,11,4,9,0,0],
[37,9,16,9,15,9,14,8,15,8,16],
[1,12,7,0,0, 0,0, 0,0, 0,0],
[8,1,16,1,15,0,0, 0,0, 0,0],
[51,11,8,12,8,11,9,11,10,12,10],
[26,10,10,10,9,10,8,0,0, 0,0],
[19,3,6,3,7,3,8,2,8,0,0],
[59,13,7,14,7,14,6,13,6,13,5],
[16,5,9,0,0, 0,0, 0,0, 0,0],
[9,14,3,0,0, 0,0, 0,0, 0,0],
[23,10,16,10,15,11,16,0,0, 0,0],
[11,14,14,14,13,0,0, 0,0, 0,0],
[35,16,6,16,5,16,4,0,0, 0,0],
[33,3,2,2,2,1,2,1,1,0,0],
[24,4,16,5,16,0,0, 0,0, 0,0],
[35,4,3,4,4,5,3,6,3,6,4],
[6,6,2,0,0, 0,0, 0,0, 0,0],
[7,4,7,0,0, 0,0, 0,0, 0,0],
[6,4,8,0,0, 0,0, 0,0, 0,0],
[2,8,4,0,0, 0,0, 0,0, 0,0],
[13,3,1,2,1,0,0, 0,0, 0,0],
[27,1,3,2,3,2,4,2,5,0,0],
[12,1,4,0,0, 0,0, 0,0, 0,0],
[21,1,5,1,6,0,0, 0,0, 0,0],
[2,2,15,0,0, 0,0, 0,0, 0,0],
[58,2,16,3,16,3,15,3,14,4,15],
[4,5,8,6,8,0,0, 0,0, 0,0],
[22,6,1,7,1,0,0, 0,0, 0,0],
[21,7,4,7,5,0,0, 0,0, 0,0],
[5,7,10,8,10,0,0, 0,0, 0,0],
[24,11,6,11,7,0,0, 0,0, 0,0],
[9,12,2,0,0, 0,0, 0,0, 0,0],
[9,12,3,13,3,0,0, 0,0, 0,0],
[26,12,5,12,6,0,0, 0,0, 0,0],
[38,13,10,13,11,14,11,14,10,15,10],
[14,13,16,0,0, 0,0, 0,0, 0,0],
[4,14,4,0,0, 0,0, 0,0, 0,0],
[6,14,5,15,5,0,0, 0,0, 0,0],
[11,14,15,0,0, 0,0, 0,0, 0,0],
[20,14,16,15,16,0,0, 0,0, 0,0],
[44,15,1,15,2,16,1,0,0, 0,0],
[26,15,6,15,7,16,7,16,8,0,0],
[27,16,9,16,10,0,0, 0,0, 0,0]
]
